# Solution for model GasLib-40
# Objective value = 6.7629906919676955e+01
loadshed[innode_1] 0
loadshed[innode_2] 0
loadshed[innode_3] 0
loadshed[innode_4] 0
loadshed[innode_5] 0
loadshed[innode_6] 0
loadshed[innode_7] 0
loadshed[innode_8] 0
loadshed[source_1] -5.7789523830501954e-02
loadshed[source_2] 2.2055839535536481e-01
loadshed[source_3] 0.265024082414518
loadshed[sink_1] 1
loadshed[sink_2] 0
loadshed[sink_3] 0
loadshed[sink_4] 0
loadshed[sink_5] 0
loadshed[sink_6] 0
loadshed[sink_7] 0
loadshed[sink_8] 0
loadshed[sink_9] 0
loadshed[sink_10] 0
loadshed[sink_11] 0
loadshed[sink_12] 1
loadshed[sink_13] 0
loadshed[sink_14] 0
loadshed[sink_15] 0
loadshed[sink_16] 0
loadshed[sink_17] 0
loadshed[sink_18] 1.8399081843098131e-02
loadshed[sink_19] 0
loadshed[sink_20] 0
loadshed[sink_21] 1
loadshed[sink_22] 0.1734956650198
loadshed[sink_23] 0
loadshed[sink_24] 9.4343714121925892e-01
loadshed[sink_25] 0
loadshed[sink_26] 0
loadshed[sink_27] 0
loadshed[sink_28] 0
loadshed[sink_29] 0
flow[source_1,sink_3] 1.6722623965278734e+02
flow[innode_1,sink_16] 1.6354166666666970e+01
flow[innode_6,sink_13] -1.7133803044001326e+00
flow[sink_13,sink_14] -18.0675469710668
flow[sink_14,sink_10] -3.4421713637733468e+01
flow[sink_25,sink_26] 3.2708333333335915e+01
flow[sink_26,sink_9] 1.6354166666669244e+01
flow[sink_9,sink_18] 0
flow[sink_26,sink_4] 0
flow[sink_4,sink_20] -6.3123772546637809e+01
flow[sink_18,sink_6] -16.053265015691
flow[sink_25,innode_8] -1.3451790631945096e+02
flow[sink_6,sink_7] -4.5924221327346388e+01
flow[sink_6,sink_22] 1.3516789644988689e+01
flow[sink_7,sink_24] 9.2503841964337141e-01
flow[sink_22,sink_1] 0
flow[sink_24,sink_21] 0
flow[sink_21,sink_12] 0
flow[sink_7,sink_5] -6.3203426413656409e+01
flow[sink_5,sink_17] -7.9557593080323073e+01
flow[sink_17,sink_4] -4.6769605879971138e+01
flow[sink_17,sink_8] -4.9142153867018607e+01
flow[sink_3,sink_23] 16.3541666666697
flow[sink_8,sink_20] -6.5496320533685278e+01
flow[sink_25,sink_20] 1.4497425974698973e+02
flow[sink_25,sink_15] -5.7805473123142136e+01
flow[sink_15,sink_29] -7.4159639789808807e+01
flow[sink_29,sink_28] 1.6354166666667879e+01
flow[sink_29,sink_2] 1.6354166666684250e+01
flow[sink_2,sink_15] 0
flow[sink_29,innode_7] -1.2322213978982722e+02
flow[innode_4,sink_19] 4.4916473180511595e+01
flow[sink_19,innode_3] 4.0739943868539719e+01
flow[innode_4,innode_5] 7.1276073790554349e+01
flow[sink_27,innode_5] -7.1276073790554349e+01
flow[sink_27,sink_19] 5.4921907123887678e+01
flow[sink_10,sink_11] 3.2708333333333641e+01
flow[sink_10,innode_2] -4.2744269769194055e+01
flow[sink_10,innode_3] -4.0739943868539719e+01
flow[innode_6,sink_25] 1.7133803044001326e+00
flow[sink_11,innode_1] 1.6354166666666970e+01
flow[sink_19,innode_2] 4.2744269769194055e+01
flow[source_3,innode_4] 1.1619254697106595e+02
flow[source_2,innode_7] 1.2322213978982722e+02
flow[sink_3,innode_8] 1.3451790631945096e+02
pressure[innode_1] 7.6782656719110051e+01
pressure[innode_2] 7.9193569223631513e+01
pressure[innode_3] 7.9103355231232811e+01
pressure[innode_4] 81.01325
pressure[innode_5] 8.0964222558047851e+01
pressure[innode_6] 7.5264480311155239e+01
pressure[innode_7] 81.01325
pressure[innode_8] 8.0454276563579768e+01
pressure[source_1] 81.01325
pressure[source_2] 81.01325
pressure[source_3] 81.01325
pressure[sink_1] 1.0132500000000002e+00
pressure[sink_2] 7.7303270984336493e+01
pressure[sink_3] 8.0454276563579768e+01
pressure[sink_4] 3.6072006603142569e+01
pressure[sink_5] 2.8358160858734049e+01
pressure[sink_6] 1.4419199727702054e+00
pressure[sink_7] 2.0723500648189668e+00
pressure[sink_8] 3.6138887617997327e+01
pressure[sink_9] 7.1982012519084918e+01
pressure[sink_10] 76.9343580267136
pressure[sink_11] 7.6782656719110051e+01
pressure[sink_12] 1.01325
pressure[sink_13] 7.5273925890440950e+01
pressure[sink_14] 75.3062593047603
pressure[sink_15] 7.5544893182717644e+01
pressure[sink_16] 7.5761006884292371e+01
pressure[sink_17] 3.4284626484418375e+01
pressure[sink_18] 1.01325
pressure[sink_19] 7.9193569223631513e+01
pressure[sink_20] 4.0703060066687293e+01
pressure[sink_21] 1.01325
pressure[sink_22] 1.0132500000000002e+00
pressure[sink_23] 8.0289558551919981e+01
pressure[sink_24] 1.01325
pressure[sink_25] 7.5264480311155239e+01
pressure[sink_26] 7.2960851603027336e+01
pressure[sink_27] 8.0372762849609259e+01
pressure[sink_28] 7.7422258209182971e+01
pressure[sink_29] 7.7717540482800146e+01
interdiction[source_1,sink_3] 0
interdiction[innode_1,sink_16] 0
interdiction[innode_6,sink_13] 0
interdiction[sink_13,sink_14] 0
interdiction[sink_14,sink_10] 0
interdiction[sink_25,sink_26] 0
interdiction[sink_26,sink_9] 0
interdiction[sink_9,sink_18] 1
interdiction[sink_26,sink_4] 1
interdiction[sink_4,sink_20] 0
interdiction[sink_18,sink_6] 0
interdiction[sink_25,innode_8] 0
interdiction[sink_6,sink_7] 0
interdiction[sink_6,sink_22] 0
interdiction[sink_7,sink_24] 0
interdiction[sink_22,sink_1] 0
interdiction[sink_24,sink_21] 0
interdiction[sink_21,sink_12] 0
interdiction[sink_7,sink_5] 0
interdiction[sink_5,sink_17] 0
interdiction[sink_17,sink_4] 0
interdiction[sink_17,sink_8] 0
interdiction[sink_3,sink_23] 0
interdiction[sink_8,sink_20] 0
interdiction[sink_25,sink_20] 0
interdiction[sink_25,sink_15] 0
interdiction[sink_15,sink_29] 0
interdiction[sink_29,sink_28] 0
interdiction[sink_29,sink_2] 0
interdiction[sink_2,sink_15] 1
interdiction[sink_29,innode_7] 0
interdiction[innode_4,sink_19] 0
interdiction[sink_19,innode_3] 0
interdiction[innode_4,innode_5] 0
interdiction[sink_27,innode_5] 0
interdiction[sink_27,sink_19] 0
interdiction[sink_10,sink_11] 0
interdiction[sink_10,innode_2] 0
interdiction[sink_10,innode_3] 0
interdiction[innode_6,sink_25] 0
interdiction[sink_11,innode_1] 0
interdiction[sink_19,innode_2] 0
interdiction[source_3,innode_4] 0
interdiction[source_2,innode_7] 0
interdiction[sink_3,innode_8] 0
WCcheckFlow[source_1,sink_3] 39
WCcheckFlow[innode_1,sink_16] 1
WCcheckFlow[innode_6,sink_13] 13
WCcheckFlow[sink_13,sink_14] 12
WCcheckFlow[sink_14,sink_10] 11
WCcheckFlow[sink_25,sink_26] 2
WCcheckFlow[sink_26,sink_9] 1
WCcheckFlow[sink_9,sink_18] 0
WCcheckFlow[sink_26,sink_4] 0
WCcheckFlow[sink_4,sink_20] -12
WCcheckFlow[sink_18,sink_6] -1
WCcheckFlow[sink_25,innode_8] -36
WCcheckFlow[sink_6,sink_7] -4
WCcheckFlow[sink_6,sink_22] 2
WCcheckFlow[sink_7,sink_24] 3
WCcheckFlow[sink_22,sink_1] 1
WCcheckFlow[sink_24,sink_21] 2
WCcheckFlow[sink_21,sink_12] 1
WCcheckFlow[sink_7,sink_5] -8
WCcheckFlow[sink_5,sink_17] -9
WCcheckFlow[sink_17,sink_4] -11
WCcheckFlow[sink_17,sink_8] 1
WCcheckFlow[sink_3,sink_23] 1
WCcheckFlow[sink_8,sink_20] 0
WCcheckFlow[sink_25,sink_20] 13
WCcheckFlow[sink_25,sink_15] 6
WCcheckFlow[sink_15,sink_29] 5
WCcheckFlow[sink_29,sink_28] 1
WCcheckFlow[sink_29,sink_2] 1
WCcheckFlow[sink_2,sink_15] 0
WCcheckFlow[sink_29,innode_7] 2
WCcheckFlow[innode_4,sink_19] -4
WCcheckFlow[sink_19,innode_3] -5
WCcheckFlow[innode_4,innode_5] 2
WCcheckFlow[sink_27,innode_5] -1
WCcheckFlow[sink_27,sink_19] 0
WCcheckFlow[sink_10,sink_11] 3
WCcheckFlow[sink_10,innode_2] 1
WCcheckFlow[sink_10,innode_3] 6
WCcheckFlow[innode_6,sink_25] -14
WCcheckFlow[sink_11,innode_1] 2
WCcheckFlow[sink_19,innode_2] 0
WCcheckFlow[source_3,innode_4] -1
WCcheckFlow[source_2,innode_7] -1
WCcheckFlow[sink_3,innode_8] 37
